m = 3; % number of couriers
n = 7; % number of packages

l = [15, 10, 7]; % maximum carriable weight per courier
s = [3, 2, 6, 8, 5, 4, 4]; % weight of each package

D = % distance matrix
    [| 0, 3, 3, 6, 5, 6, 6, 2
     | 3, 0, 4, 3, 4, 7, 7, 3
     | 3, 4, 0, 7, 6, 3, 5, 3
     | 6, 3, 7, 0, 3, 6, 6, 4
     | 5, 4, 6, 3, 0, 3, 3, 3
     | 6, 7, 3, 6, 3, 0, 2, 4
     | 6, 7, 5, 6, 3, 2, 0, 4
     | 2, 3, 3, 4, 3, 4, 4, 0
     |];

